(set-info :origin "NTS benchmark converted to SMT-LIB2 using Eldarica (http://lara.epfl.ch/w/eldarica)")
(set-logic HORN)
(declare-fun p (Int Int Int Int Int Int Int Int Int) Bool)
(assert(forall((A Int)(B Int)(C Int)(D Int)(E Int)(F Int)(G Int)(H Int)(I Int)(J Int)(K Int)(L Int)(M Int)(N Int)(O Int)(P Int)(Q Int))(=>(and (and (= A 30) (and (and (and (and (and (and (and (= J B) (= K C)) (= L D)) (= M E)) (= N F)) (= O G)) (= P H)) (= Q I))) (and (and (and (not (not (= L P))) (not (not (= K O)))) (not (not (= J N)))) (not (not (= M Q))))) (p A B C D E F G H I))))
(assert(forall((A Int)(B Int)(C Int)(D Int)(E Int)(F Int)(G Int)(H Int)(I Int)(J Int)(K Int)(L Int)(M Int)(N Int)(O Int)(P Int)(Q Int)(R Int)(S Int)(T Int)(U Int)(V Int)(W Int)(X Int)(Y Int)(Z Int)(A1 Int)(B1 Int)(C1 Int)(D1 Int))(=>(and (or (or (or (or (or (or (or (or (or (or (or (or (or (or (or (or (or (or (or (or (or (or (or (or (or (or (or (or (or (or (or (or (or (and (and (and (and (= A 0) (= J 1)) (and (and (and (and (and (and (and (= K B) (= L C)) (= M D)) (= N E)) (= O F)) (= P G)) (= Q H)) (= R I))) (and (and (and (and (and (and (and (= K S) (= L T)) (= M U)) (= N V)) (= W X)) (= Y Z)) (= A1 B1)) (= C1 D1))) (and (and (and (and (not (not (= C1 R))) (not (not (= A1 Q)))) (not (not (= Y P)))) (not (not (= W O)))) (not (not (= (+ C1 (- 1)) 0))))) (and (and (and (and (= A 1) (= J 2)) (and (and (and (and (and (and (and (= K B) (= L C)) (= M D)) (= N E)) (= O F)) (= P G)) (= Q H)) (= R I))) (and (and (and (and (and (and (and (= K S) (= L T)) (= M U)) (= N V)) (= W X)) (= Y Z)) (= C1 B1)) (= A1 D1))) (and (and (and (not (not (= A1 R))) (not (not (= Y P)))) (not (not (= W O)))) (not (not (= Q (+ C1 1))))))) (and (and (and (and (= A 3) (= J 1)) (and (and (and (and (and (and (and (= K B) (= L C)) (= M D)) (= N E)) (= O F)) (= P G)) (= Q H)) (= R I))) (and (and (and (and (and (and (and (= K S) (= L T)) (= M U)) (= N V)) (= W X)) (= A1 Z)) (= Y B1)) (= C1 D1))) (and (and (and (and (not (not (= Y Q))) (not (not (= W O)))) (not (not (>= (+ C1 (- 2)) 0)))) (not (not (= P (+ C1 (- 1)))))) (not (not (= (+ R (- 1)) 0)))))) (and (and (and (and (= A 4) (= J 5)) (and (and (and (and (and (and (and (= K B) (= L C)) (= M D)) (= N E)) (= O F)) (= P G)) (= Q H)) (= R I))) (and (and (and (and (and (and (and (= K S) (= L T)) (= M U)) (= N V)) (= C1 X)) (= W Z)) (= A1 B1)) (= Y D1))) (and (and (and (not (not (= Y R))) (not (not (= W P)))) (not (not (= C1 O)))) (not (not (= (+ Q 0) 0)))))) (and (and (and (and (= A 6) (= J 7)) (and (and (and (and (and (and (and (= K B) (= L C)) (= M D)) (= N E)) (= O F)) (= P G)) (= Q H)) (= R I))) (and (and (and (and (and (and (and (= K S) (= L T)) (= M U)) (= N V)) (= C1 X)) (= W Z)) (= Y B1)) (= A1 D1))) (and (and (and (not (not (= A1 R))) (not (not (= Y Q)))) (not (not (= W P)))) (not (not (= C1 O)))))) (and (and (and (and (= A 2) (= J 8)) (and (and (and (and (and (and (and (= K B) (= L C)) (= M D)) (= N E)) (= O F)) (= P G)) (= Q H)) (= R I))) (and (and (and (and (and (and (and (= K S) (= L T)) (= M U)) (= N V)) (= C1 X)) (= W Z)) (= Y B1)) (= A1 D1))) (and (and (and (not (not (= A1 R))) (not (not (= Y Q)))) (not (not (= W P)))) (not (not (= C1 O)))))) (and (and (and (and (= A 8) (= J 4)) (and (and (and (and (and (and (and (= K B) (= L C)) (= M D)) (= N E)) (= O F)) (= P G)) (= Q H)) (= R I))) (and (and (and (and (and (and (and (= K S) (= L T)) (= M U)) (= N V)) (= C1 X)) (= W Z)) (= Y B1)) (= A1 D1))) (and (and (and (not (not (= A1 R))) (not (not (= Y Q)))) (not (not (= W P)))) (not (not (= C1 O)))))) (and (and (and (and (= A 9) (= J 10)) (and (and (and (and (and (and (and (= K B) (= L C)) (= M D)) (= N E)) (= O F)) (= P G)) (= Q H)) (= R I))) (and (and (and (and (and (and (and (= K S) (= L T)) (= M U)) (= N V)) (= C1 X)) (= A1 Z)) (= W B1)) (= Y D1))) (and (and (and (not (not (= Y R))) (not (not (= W Q)))) (not (not (= C1 O)))) (not (not (= P C1)))))) (and (and (and (and (= A 7) (= J 11)) (and (and (and (and (and (and (and (= K B) (= L C)) (= M D)) (= N E)) (= O F)) (= P G)) (= Q H)) (= R I))) (and (and (and (and (and (and (and (= K S) (= L T)) (= M U)) (= N V)) (= Y X)) (= C1 Z)) (= A1 B1)) (= W D1))) (and (and (and (and (not (not (= A1 Q))) (not (not (= C1 P)))) (not (not (= Y O)))) (not (not (= R (+ W 1))))) (not (not (= (+ C1 (- 1)) 0)))))) (and (and (and (and (= A 10) (= J 11)) (and (and (and (and (and (and (and (= K B) (= L C)) (= M D)) (= N E)) (= O F)) (= P G)) (= Q H)) (= R I))) (and (and (and (and (and (and (and (= K S) (= L T)) (= M U)) (= N V)) (= A1 X)) (= W Z)) (= Y B1)) (= C1 D1))) (and (and (and (and (not (not (= Y Q))) (not (not (>= (+ W (- 2)) 0)))) (not (not (= (+ P (- 1)) 0)))) (not (not (= O (+ W (- 1)))))) (not (not (= R (+ C1 1))))))) (and (and (and (and (= A 13) (= J 14)) (and (and (and (and (and (and (and (= K B) (= L C)) (= M D)) (= N E)) (= O F)) (= P G)) (= Q H)) (= R I))) (and (and (and (and (and (and (and (= K S) (= L T)) (= M U)) (= N V)) (= W X)) (= Y Z)) (= C1 B1)) (= A1 D1))) (and (and (and (not (not (= A1 R))) (not (not (= Y P)))) (not (not (= W O)))) (not (not (= Q (+ C1 (- 1)))))))) (and (and (and (and (= A 11) (= J 15)) (and (and (and (and (and (and (and (= K B) (= L C)) (= M D)) (= N E)) (= O F)) (= P G)) (= Q H)) (= R I))) (and (and (and (and (and (and (and (= K S) (= L T)) (= M U)) (= N V)) (= W X)) (= Y Z)) (= C1 B1)) (= A1 D1))) (and (and (and (not (not (= A1 R))) (not (not (= Y P)))) (not (not (= W O)))) (not (not (= Q (+ C1 (- 1)))))))) (and (and (and (and (= A 5) (= J 16)) (and (and (and (and (and (and (and (= K B) (= L C)) (= M D)) (= N E)) (= O F)) (= P G)) (= Q H)) (= R I))) (and (and (and (and (and (and (and (= K S) (= L T)) (= M U)) (= N V)) (= C1 X)) (= W Z)) (= Y B1)) (= A1 D1))) (and (and (and (not (not (= A1 R))) (not (not (= Y Q)))) (not (not (= W P)))) (not (not (= C1 O)))))) (and (and (and (and (= A 15) (= J 17)) (and (and (and (and (and (and (and (= K B) (= L C)) (= M D)) (= N E)) (= O F)) (= P G)) (= Q H)) (= R I))) (and (and (and (and (and (and (and (= K S) (= L T)) (= M U)) (= N V)) (= C1 X)) (= W Z)) (= Y B1)) (= A1 D1))) (and (and (and (not (not (= A1 R))) (not (not (= Y Q)))) (not (not (= W P)))) (not (not (= C1 O)))))) (and (and (and (and (= A 17) (= J 9)) (and (and (and (and (and (and (and (= K B) (= L C)) (= M D)) (= N E)) (= O F)) (= P G)) (= Q H)) (= R I))) (and (and (and (and (and (and (and (= K S) (= L T)) (= M U)) (= N V)) (= C1 X)) (= W Z)) (= Y B1)) (= A1 D1))) (and (and (and (not (not (= A1 R))) (not (not (= Y Q)))) (not (not (= W P)))) (not (not (= C1 O)))))) (and (and (and (and (= A 14) (= J 18)) (and (and (and (and (and (and (and (= K B) (= L C)) (= M D)) (= N E)) (= O F)) (= P G)) (= Q H)) (= R I))) (and (and (and (and (and (and (and (= K S) (= L T)) (= M U)) (= N V)) (= C1 X)) (= W Z)) (= Y B1)) (= A1 D1))) (and (and (and (not (not (= A1 R))) (not (not (= Y Q)))) (not (not (= W P)))) (not (not (= C1 O)))))) (and (and (and (and (= A 18) (= J 6)) (and (and (and (and (and (and (and (= K B) (= L C)) (= M D)) (= N E)) (= O F)) (= P G)) (= Q H)) (= R I))) (and (and (and (and (and (and (and (= K S) (= L T)) (= M U)) (= N V)) (= W X)) (= Y Z)) (= C1 B1)) (= A1 D1))) (and (and (and (and (not (not (= A1 R))) (not (not (= C1 Q)))) (not (not (= Y P)))) (not (not (= W O)))) (not (not (<= C1 (- 1))))))) (and (and (and (and (= A 18) (= J 6)) (and (and (and (and (and (and (and (= K B) (= L C)) (= M D)) (= N E)) (= O F)) (= P G)) (= Q H)) (= R I))) (and (and (and (and (and (and (and (= K S) (= L T)) (= M U)) (= N V)) (= W X)) (= Y Z)) (= C1 B1)) (= A1 D1))) (and (and (and (and (not (not (= A1 R))) (not (not (= C1 Q)))) (not (not (= Y P)))) (not (not (= W O)))) (not (not (>= (+ C1 (- 1)) 0)))))) (and (and (and (and (= A 6) (= J 19)) (and (and (and (and (and (and (and (= K B) (= L C)) (= M D)) (= N E)) (= O F)) (= P G)) (= Q H)) (= R I))) (and (and (and (and (and (and (and (= K S) (= L T)) (= M U)) (= N V)) (= W X)) (= Y Z)) (= A1 B1)) (= C1 D1))) (and (and (and (and (not (not (= C1 R))) (not (not (= A1 Q)))) (not (not (= Y P)))) (not (not (= W O)))) (not (not (= (+ C1 (- 1)) 0)))))) (and (and (and (and (= A 9) (= J 19)) (and (and (and (and (and (and (and (= K B) (= L C)) (= M D)) (= N E)) (= O F)) (= P G)) (= Q H)) (= R I))) (and (and (and (and (and (and (and (= K S) (= L T)) (= M U)) (= N V)) (= W X)) (= A1 Z)) (= Y B1)) (= C1 D1))) (and (and (and (and (not (not (= Y Q))) (not (not (= W O)))) (not (not (>= (+ C1 (- 2)) 0)))) (not (not (= P (+ C1 (- 1)))))) (not (not (= (+ R (- 1)) 0)))))) (and (and (and (and (= A 19) (= J 20)) (and (and (and (and (and (and (and (= K B) (= L C)) (= M D)) (= N E)) (= O F)) (= P G)) (= Q H)) (= R I))) (and (and (and (and (and (and (and (= K S) (= L T)) (= M U)) (= N V)) (= W X)) (= Y Z)) (= C1 B1)) (= A1 D1))) (and (and (and (not (not (= A1 R))) (not (not (= Y P)))) (not (not (= W O)))) (not (not (= Q (+ C1 (- 1)))))))) (and (and (and (and (= A 3) (= J 21)) (and (and (and (and (and (and (and (= K B) (= L C)) (= M D)) (= N E)) (= O F)) (= P G)) (= Q H)) (= R I))) (and (and (and (and (and (and (and (= K S) (= L T)) (= M U)) (= N V)) (= C1 X)) (= A1 Z)) (= W B1)) (= Y D1))) (and (and (and (not (not (= Y R))) (not (not (= W Q)))) (not (not (= C1 O)))) (not (not (= P C1)))))) (and (and (and (and (= A 21) (= J 22)) (and (and (and (and (and (and (and (= K B) (= L C)) (= M D)) (= N E)) (= O F)) (= P G)) (= Q H)) (= R I))) (and (and (and (and (and (and (and (= K S) (= L T)) (= M U)) (= N V)) (= A1 X)) (= W Z)) (= Y B1)) (= C1 D1))) (and (and (and (and (not (not (= Y Q))) (not (not (>= (+ W (- 2)) 0)))) (not (not (= (+ P (- 1)) 0)))) (not (not (= O (+ W (- 1)))))) (not (not (= R (+ C1 1))))))) (and (and (and (and (= A 16) (= J 23)) (and (and (and (and (and (and (and (= K B) (= L C)) (= M D)) (= N E)) (= O F)) (= P G)) (= Q H)) (= R I))) (and (and (and (and (and (and (and (= K S) (= L T)) (= M U)) (= N V)) (= C1 X)) (= W Z)) (= Y B1)) (= A1 D1))) (and (and (and (not (not (= A1 R))) (not (not (= Y Q)))) (not (not (= W P)))) (not (not (= C1 O)))))) (and (and (and (and (= A 0) (= J 24)) (and (and (and (and (and (and (and (= K B) (= L C)) (= M D)) (= N E)) (= O F)) (= P G)) (= Q H)) (= R I))) (and (and (and (and (and (and (and (= K S) (= L T)) (= M U)) (= N V)) (= C1 X)) (= W Z)) (= Y B1)) (= A1 D1))) (and (and (and (not (not (= A1 R))) (not (not (= Y Q)))) (not (not (= W P)))) (not (not (= C1 O)))))) (and (and (and (and (= A 24) (= J 22)) (and (and (and (and (and (and (and (= K B) (= L C)) (= M D)) (= N E)) (= O F)) (= P G)) (= Q H)) (= R I))) (and (and (and (and (and (and (and (= K S) (= L T)) (= M U)) (= N V)) (= Y X)) (= C1 Z)) (= A1 B1)) (= W D1))) (and (and (and (and (not (not (= A1 Q))) (not (not (= C1 P)))) (not (not (= Y O)))) (not (not (= R (+ W 1))))) (not (not (= (+ C1 (- 1)) 0)))))) (and (and (and (and (= A 20) (= J 25)) (and (and (and (and (and (and (and (= K B) (= L C)) (= M D)) (= N E)) (= O F)) (= P G)) (= Q H)) (= R I))) (and (and (and (and (and (and (and (= K S) (= L T)) (= M U)) (= N V)) (= C1 X)) (= W Z)) (= Y B1)) (= A1 D1))) (and (and (and (not (not (= A1 R))) (not (not (= Y Q)))) (not (not (= W P)))) (not (not (= C1 O)))))) (and (and (and (and (= A 22) (= J 26)) (and (and (and (and (and (and (and (= K B) (= L C)) (= M D)) (= N E)) (= O F)) (= P G)) (= Q H)) (= R I))) (and (and (and (and (and (and (and (= K S) (= L T)) (= M U)) (= N V)) (= W X)) (= Y Z)) (= C1 B1)) (= A1 D1))) (and (and (and (not (not (= A1 R))) (not (not (= Y P)))) (not (not (= W O)))) (not (not (= Q (+ C1 1))))))) (and (and (and (and (= A 25) (= J 27)) (and (and (and (and (and (and (and (= K B) (= L C)) (= M D)) (= N E)) (= O F)) (= P G)) (= Q H)) (= R I))) (and (and (and (and (and (and (and (= K S) (= L T)) (= M U)) (= N V)) (= C1 X)) (= W Z)) (= Y B1)) (= A1 D1))) (and (and (and (not (not (= A1 R))) (not (not (= Y Q)))) (not (not (= W P)))) (not (not (= C1 O)))))) (and (and (and (and (= A 26) (= J 28)) (and (and (and (and (and (and (and (= K B) (= L C)) (= M D)) (= N E)) (= O F)) (= P G)) (= Q H)) (= R I))) (and (and (and (and (and (and (and (= K S) (= L T)) (= M U)) (= N V)) (= C1 X)) (= W Z)) (= Y B1)) (= A1 D1))) (and (and (and (not (not (= A1 R))) (not (not (= Y Q)))) (not (not (= W P)))) (not (not (= C1 O)))))) (and (and (and (and (= A 27) (= J 29)) (and (and (and (and (and (and (and (= K B) (= L C)) (= M D)) (= N E)) (= O F)) (= P G)) (= Q H)) (= R I))) (and (and (and (and (and (and (and (= K S) (= L T)) (= M U)) (= N V)) (= C1 X)) (= W Z)) (= Y B1)) (= A1 D1))) (and (and (and (not (not (= A1 R))) (not (not (= Y Q)))) (not (not (= W P)))) (not (not (= C1 O)))))) (and (and (and (and (= A 28) (= J 3)) (and (and (and (and (and (and (and (= K B) (= L C)) (= M D)) (= N E)) (= O F)) (= P G)) (= Q H)) (= R I))) (and (and (and (and (and (and (and (= K S) (= L T)) (= M U)) (= N V)) (= C1 X)) (= W Z)) (= Y B1)) (= A1 D1))) (and (and (and (not (not (= A1 R))) (not (not (= Y Q)))) (not (not (= W P)))) (not (not (= C1 O)))))) (and (and (and (and (= A 29) (= J 0)) (and (and (and (and (and (and (and (= K B) (= L C)) (= M D)) (= N E)) (= O F)) (= P G)) (= Q H)) (= R I))) (and (and (and (and (and (and (and (= K S) (= L T)) (= M U)) (= N V)) (= C1 X)) (= W Z)) (= Y B1)) (= A1 D1))) (and (and (and (not (not (= A1 R))) (not (not (= Y Q)))) (not (not (= W P)))) (not (not (= C1 O)))))) (and (and (and (and (= A 23) (= J 30)) (and (and (and (and (and (and (and (= K B) (= L C)) (= M D)) (= N E)) (= O F)) (= P G)) (= Q H)) (= R I))) (and (and (and (and (and (and (and (= K S) (= L T)) (= M U)) (= N V)) (= C1 X)) (= W Z)) (= Y B1)) (= A1 D1))) (and (and (and (not (not (= A1 R))) (not (not (= Y Q)))) (not (not (= W P)))) (not (not (= C1 O)))))) (p J S T U V X Z B1 D1)) (p A B C D E F G H I))))
(assert(not (exists((A Int)(B Int)(C Int)(D Int)(E Int)(F Int)(G Int)(H Int)(I Int)(J Int)(K Int)(L Int)(M Int)(N Int)(O Int)(P Int)(Q Int)(R Int)(S Int)(T Int)(U Int))(and (and (and (= A 13) (and (and (and (and (and (and (and (= B C) (= D E)) (= F G)) (= H I)) (= J K)) (= L M)) (= N O)) (= P Q))) (and (and (and (not (not (= P R))) (not (not (= N S)))) (not (not (= L T)))) (not (not (= J U))))) (p A C E G I K M O Q)))))
(check-sat)
